&CONTROL
  calculation   = 'vc-relax',
  prefix        = 'A_AlPO3_3_vc',
  outdir        = '/home/ubuntu/Computational-Chemistry/DFT/QEspresso/A-AlPO3-3_qe/tmp',
  pseudo_dir    = '../01_pseudos_library',
  restart_mode  = 'restart',                    
  disk_io       = 'medium',                          
  wf_collect    = .true.,                            
  tprnfor       = .true.,
  tstress       = .true.,
  verbosity     = 'high',
  nstep         = 100,
  forc_conv_thr = 1.0d-3,                         
/
&SYSTEM
  ibrav         = 0,
  nat           = 104,
  ntyp          = 3,
  ecutwfc       = 80,
  ecutrho       = 640,
  occupations   = 'fixed',
  input_dft     = 'PBE',
/
&ELECTRONS
  conv_thr      = 1.0d-8,
  mixing_beta   = 0.3,
  diagonalization = 'david',
/
&IONS
  ion_dynamics  = 'bfgs',
/
&CELL
  cell_dynamics = 'bfgs',
  press         = 0.0d0,                             
  press_conv_thr = 1.0d0,                            
  cell_dofree   = 'all',
/
K_POINTS automatic
  2 2 2  0 0 0

CELL_PARAMETERS angstrom
-6.81500000000000 6.81500000000000 6.81500000000000
 6.81500000000000 -6.81500000000000 6.81500000000000
 6.81500000000000 6.81500000000000 -6.81500000000000

ATOMIC_SPECIES
  Al 26.9815385 Al.pbe-n-kjpaw_psl.1.0.0.UPF
  P  30.973761998 P.pbe-n-kjpaw_psl.1.0.0.UPF
  O  15.999 O.pbe-n-kjpaw_psl.1.0.0.UPF

ATOMIC_POSITIONS angstrom
Al               1.4456366653        1.4456366653        1.4456366653
Al               1.4456366653       -1.4456366653        5.3693633347
Al               5.3693633347        1.4456366653       -1.4456366653
Al              -1.4456366653        5.3693633347        1.4456366653
Al               4.8531366653        4.8531366653        4.8531366653
Al              -1.9618633347        1.9618633347        8.7768633347
Al               1.9618633347        8.7768633347       -1.9618633347
Al               8.7768633347       -1.9618633347        1.9618633347
P                4.4843673712        0.5778670936        1.6162242281
P                4.4843673712       -0.5778670936        5.1987757719
P               -4.4843673712        7.3928670936        5.1987757719
P                2.3306326288       -0.5778670936        8.4312242281
P                7.8918673712        5.0237242281        3.9853670936
P                1.0768673712        1.7912757719        9.6446329064
P                5.7381326288        1.7912757719        3.9853670936
P                5.7381326288       -1.7912757719        2.8296329064
P                0.5778670936        1.6162242281        4.4843673712
P               -0.5778670936        5.1987757719        4.4843673712
P                7.3928670936        5.1987757719       -4.4843673712
P               -0.5778670936        8.4312242281        2.3306326288
P                5.0237242281        3.9853670936        7.8918673712
P                1.7912757719        9.6446329064        1.0768673712
P                1.7912757719        3.9853670936        5.7381326288
P               -1.7912757719        2.8296329064        5.7381326288
P                1.6162242281        4.4843673712        0.5778670936
P                5.1987757719        4.4843673712       -0.5778670936
P                5.1987757719       -4.4843673712        7.3928670936
P                8.4312242281        2.3306326288       -0.5778670936
P                3.9853670936        7.8918673712        5.0237242281
P                9.6446329064        1.0768673712        1.7912757719
P                3.9853670936        5.7381326288        1.7912757719
P                2.8296329064        5.7381326288       -1.7912757719
O                1.1903910159        1.3435920735       11.1910861310
O                8.0053910159        5.4714079265        2.4389138690
O                5.6246089841        1.3435920735        2.4389138690
O                5.6246089841       -1.3435920735        4.3760861310
O                4.5978910159        0.9685861310        4.7510920735
O                4.5978910159       -0.9685861310        2.0639079265
O               -4.5978910159        5.8464138690        4.7510920735
O                2.2171089841        0.9685861310        8.8789079265
O                1.3435920735       11.1910861310        1.1903910159
O                5.4714079265        2.4389138690        8.0053910159
O                1.3435920735        2.4389138690        5.6246089841
O               -1.3435920735        4.3760861310        5.6246089841
O                0.9685861310        4.7510920735        4.5978910159
O               -0.9685861310        2.0639079265        4.5978910159
O                5.8464138690        4.7510920735       -4.5978910159
O                0.9685861310        8.8789079265        2.2171089841
O               11.1910861310        1.1903910159        1.3435920735
O                2.4389138690        8.0053910159        5.4714079265
O                2.4389138690        5.6246089841        1.3435920735
O                4.3760861310        5.6246089841       -1.3435920735
O                4.7510920735        4.5978910159        0.9685861310
O                2.0639079265        4.5978910159       -0.9685861310
O                4.7510920735       -4.5978910159        5.8464138690
O                8.8789079265        2.2171089841        0.9685861310
O                1.0164284828        2.1101427293        3.1413917202
O                7.8314284828        4.7048572707       -3.1413917202
O               -1.0164284828        8.9251427293        3.6736082798
O               -1.0164284828        4.7048572707        3.1413917202
O                4.4239284828        6.5488917202        5.5176427293
O                4.4239284828        7.0811082798        1.2973572707
O                2.3910715172        7.0811082798       -1.2973572707
O                9.2060715172       -0.2661082798        1.2973572707
O                2.1101427293        3.1413917202        1.0164284828
O                4.7048572707       -3.1413917202        7.8314284828
O                8.9251427293        3.6736082798       -1.0164284828
O                4.7048572707        3.1413917202       -1.0164284828
O                6.5488917202        5.5176427293        4.4239284828
O                7.0811082798        1.2973572707        4.4239284828
O                7.0811082798       -1.2973572707        2.3910715172
O               -0.2661082798        1.2973572707        9.2060715172
O                3.1413917202        1.0164284828        2.1101427293
O               -3.1413917202        7.8314284828        4.7048572707
O                3.6736082798       -1.0164284828        8.9251427293
O                3.1413917202       -1.0164284828        4.7048572707
O                5.5176427293        4.4239284828        6.5488917202
O                1.2973572707        4.4239284828        7.0811082798
O               -1.2973572707        2.3910715172        7.0811082798
O                1.2973572707        9.2060715172       -0.2661082798
O                1.9537353870        0.6637276650       -0.1801257680
O                1.9537353870       -0.6637276650        6.9951257680
O                4.8612646130        0.6637276650        0.1801257680
O                4.8612646130       -0.6637276650        6.6348742320
O                5.3612353870        3.2273742320        4.0712276650
O               -1.4537646130        3.5876257680        9.5587723350
O                8.2687646130        3.5876257680        4.0712276650
O                1.4537646130        3.2273742320        9.5587723350
O                0.6637276650       -0.1801257680        1.9537353870
O               -0.6637276650        6.9951257680        1.9537353870
O                0.6637276650        0.1801257680        4.8612646130
O               -0.6637276650        6.6348742320        4.8612646130
O                3.2273742320        4.0712276650        5.3612353870
O                3.5876257680        9.5587723350       -1.4537646130
O                3.5876257680        4.0712276650        8.2687646130
O                3.2273742320        9.5587723350        1.4537646130
O               -0.1801257680        1.9537353870        0.6637276650
O                6.9951257680        1.9537353870       -0.6637276650
O                0.1801257680        4.8612646130        0.6637276650
O                6.6348742320        4.8612646130       -0.6637276650
O                4.0712276650        5.3612353870        3.2273742320
O                9.5587723350       -1.4537646130        3.5876257680
O                4.0712276650        8.2687646130        3.5876257680
O                9.5587723350        1.4537646130        3.2273742320