! CAM-B3LYP cc-pVDZ Opt NumFreq
#conformer 1  -27.06751653

%ELPROP
   POLAR 1
END

%pal
 nprocs 16
END

* xyz 0 1
 C          0.7123545420        1.0805291951        0.0071747962
 N          1.3647393499       -0.0809391520        0.0278891744
 C          0.5796116824       -1.1571429297        0.0070749997
 N         -0.7525467984       -1.1414426142       -0.0081738111
 C         -1.2918541875        0.0766220485       -0.0086228777
 N         -0.6123215201        1.2224067688       -0.0081450090
 N         -2.6398622616        0.1565503398        0.0367779836
 N          1.1843578794       -2.3635201980       -0.0345095253
 N          1.4554777948        2.2069592950       -0.0345757596
 H         -3.0586092657        1.0513747235       -0.1416183162
 H         -3.1614928527       -0.6826687893       -0.1409648124
 H          2.1728543943       -2.3988562273        0.1352082218
 H          0.6177616606       -3.1779819432        0.1164949036
 H          2.4411772305        2.1251640088        0.1352820714
 H          0.9891354501        3.0826685036        0.1167149316
*